p cnf 150 360
-128 -2 142 0
104 36 20 0
47 38 -40 0
-72 -21 1 0
-114 -85 39 0
-56 -39 115 0
40 46 -100 0
-103 -57 112 0
-47 -136 77 0
-36 -75 43 0
138 -65 121 0
146 17 -49 0
87 -76 -18 0
72 -125 147 0
-75 133 -127 0
62 -51 70 0
-25 -114 49 0
51 32 63 0
-28 -48 51 0
75 80 83 0
126 -9 116 0
3 -113 33 0
65 -14 17 0
142 27 56 0
-131 66 36 0
-121 -82 -20 0
-140 47 -19 0
57 -16 -130 0
-112 -70 -149 0
59 5 -40 0
76 135 6 0
-73 146 150 0
66 -111 -130 0
20 22 -2 0
-22 4 -103 0
131 3 110 0
-60 -121 77 0
46 -68 -80 0
-74 -5 -123 0
74 -60 29 0
-96 -5 -51 0
11 -34 53 0
125 73 94 0
76 87 125 0
84 64 -143 0
147 82 -6 0
-17 102 -130 0
46 -101 -89 0
-108 112 -68 0
67 39 63 0
-70 -56 42 0
-86 72 127 0
101 102 71 0
73 -51 137 0
7 -85 -102 0
-55 -58 -13 0
60 -16 107 0
68 49 -26 0
117 -24 -110 0
-26 25 100 0
-109 43 -31 0
21 -128 100 0
-113 56 135 0
58 128 120 0
-117 53 27 0
111 35 -69 0
54 -58 138 0
-125 2 -37 0
63 19 -138 0
92 55 143 0
-107 -121 57 0
-58 6 -37 0
133 -84 -149 0
127 52 76 0
120 -94 -139 0
34 -74 16 0
86 -37 -33 0
-110 -83 118 0
77 -26 110 0
51 -5 61 0
35 44 -134 0
-40 28 31 0
47 52 102 0
-138 -148 -37 0
13 81 130 0
82 -147 135 0
27 -101 42 0
-142 -119 -143 0
62 -134 24 0
-77 -18 -80 0
94 132 -23 0
23 107 5 0
-25 -10 -66 0
5 69 135 0
143 142 33 0
90 -25 49 0
29 -100 126 0
99 -143 84 0
-44 9 -99 0
49 -83 71 0
-80 -133 -142 0
122 -86 -38 0
38 121 95 0
-66 117 134 0
-137 -103 -84 0
-62 -46 106 0
-80 -84 -79 0
-133 -75 -135 0
78 9 -24 0
-64 92 145 0
-34 91 -122 0
-143 27 94 0
-56 -59 -87 0
13 144 -110 0
75 32 106 0
26 -17 93 0
11 -125 -86 0
104 -124 64 0
76 1 -147 0
-109 -123 130 0
107 78 16 0
109 77 -126 0
-129 47 15 0
-144 -28 -80 0
-146 -136 43 0
132 -88 -74 0
-15 -141 -5 0
66 87 -103 0
3 -10 -133 0
53 -44 -89 0
108 55 -105 0
91 -71 -127 0
33 -103 84 0
135 149 9 0
91 -132 117 0
45 5 -77 0
-2 144 109 0
58 -13 136 0
35 -4 85 0
-26 125 32 0
118 136 -24 0
-7 11 128 0
116 81 -73 0
48 112 10 0
74 -57 18 0
150 -119 -73 0
38 83 -97 0
101 -80 -57 0
6 -67 102 0
-115 -137 -9 0
128 -76 -108 0
150 -35 -58 0
-115 49 16 0
-9 28 91 0
-77 120 -8 0
-54 -67 -1 0
-116 -143 -68 0
-78 -120 31 0
-118 122 35 0
-128 91 142 0
-26 126 -54 0
-47 58 -19 0
108 145 -66 0
-36 -80 138 0
5 107 36 0
62 78 13 0
-130 -44 -13 0
-99 -68 -144 0
-11 -128 143 0
61 -150 -26 0
-121 59 107 0
147 -93 -85 0
-17 99 -39 0
-76 -78 90 0
-49 13 134 0
117 142 -36 0
30 61 -144 0
86 -60 -112 0
-7 101 146 0
-137 27 146 0
33 -85 -82 0
9 44 57 0
148 -109 49 0
-83 -15 2 0
-129 -59 -123 0
130 -46 62 0
-103 -139 -123 0
71 9 -37 0
125 -79 -108 0
-145 -132 95 0
-19 125 -65 0
-33 79 -122 0
-95 -136 83 0
-6 -88 -33 0
147 119 123 0
-100 150 4 0
104 -39 -11 0
-87 144 -125 0
36 124 144 0
-77 79 110 0
87 -72 100 0
140 -83 73 0
68 -31 -90 0
30 -43 92 0
44 36 -129 0
-26 72 8 0
129 -5 -118 0
133 110 -3 0
-130 -108 141 0
9 -30 -122 0
-43 -45 56 0
92 -88 60 0
9 -110 -103 0
64 85 33 0
-9 102 92 0
-92 -94 145 0
141 -128 138 0
-32 -143 -52 0
13 114 94 0
-33 -112 -37 0
-50 127 -107 0
-108 92 -28 0
144 -133 -126 0
-119 -44 97 0
-40 97 -85 0
104 22 76 0
-6 -53 -140 0
-88 -20 40 0
81 37 94 0
48 -103 67 0
24 -95 28 0
-50 -105 -5 0
-135 12 -113 0
-111 -3 149 0
-76 -128 -127 0
-3 -139 -1 0
63 -145 111 0
49 -25 -22 0
11 -87 93 0
-104 118 -85 0
83 -4 -43 0
-122 97 72 0
-42 -57 66 0
67 -124 126 0
-57 -120 134 0
-67 -53 43 0
100 -24 -25 0
-9 26 -130 0
44 14 75 0
-17 12 -116 0
-132 -81 -70 0
122 -97 -9 0
72 -52 -131 0
75 -1 98 0
-64 -150 -98 0
-17 63 6 0
117 36 -95 0
85 -136 137 0
-128 92 81 0
140 -139 7 0
30 -11 15 0
24 106 17 0
93 -84 -70 0
-146 15 106 0
-65 136 148 0
53 5 71 0
86 122 -25 0
134 -67 -35 0
-23 118 49 0
-108 -3 126 0
-91 -110 1 0
67 77 90 0
-26 -115 -59 0
-90 83 -92 0
55 -36 -68 0
-96 1 -42 0
104 134 -51 0
103 -4 15 0
-43 35 -78 0
55 144 -74 0
-82 108 98 0
22 3 79 0
-137 49 75 0
-5 -79 65 0
-35 146 -77 0
-56 -102 -8 0
74 116 -14 0
82 -134 51 0
94 79 37 0
89 39 64 0
60 -45 143 0
146 76 -74 0
134 -125 117 0
-58 108 27 0
-48 -141 -123 0
-15 -73 -49 0
-27 97 47 0
114 -112 -128 0
-99 -116 45 0
-96 62 -63 0
x 1 2 -4 -5 6 -7 8 9 10 11 -12 -15 -16 -17 -21 22 23 26 27 29 31 33 -34 -35 -36 38 39 45 -49 55 -61 62 -66 -69 -70 71 -72 -74 75 -78 -82 83 -84 86 -87 -88 -90 -91 -92 93 -96 97 102 103 -106 -110 -112 113 120 -122 -124 126 -128 129 -132 134 136 138 140 142 -143 0
x -1 -6 -7 8 -9 -12 -13 19 -22 23 27 -28 29 30 32 -34 -38 39 -42 -43 -46 48 -50 -57 -58 -60 62 -65 -68 71 72 -73 -74 -77 -79 -80 -81 82 83 86 87 -89 -96 97 98 100 -101 102 -103 -104 107 109 110 112 113 114 115 -116 117 118 -119 -123 124 130 -131 134 -136 137 140 142 -143 -144 145 -147 150 0
x -1 5 -6 8 9 -12 -13 -15 -17 -18 19 23 24 -27 28 29 32 -33 -37 38 39 -41 -42 -43 -44 45 46 47 -48 -49 -50 53 54 -56 62 -64 65 -66 -67 68 -69 -72 -73 -77 78 -81 -84 -86 87 90 -96 97 100 -103 -104 106 107 -109 111 112 -113 -115 -116 -119 -124 125 -126 127 -130 131 135 -136 -137 138 -139 141 145 -146 -147 149 0
x -1 -3 4 6 7 9 -11 12 -15 -16 -17 -21 -22 23 -26 -28 -31 32 34 36 37 40 -44 -45 -46 -47 -48 52 -53 -54 58 62 -63 -65 -66 -67 -68 70 71 -75 -78 -80 82 83 -85 90 -91 -92 93 97 99 100 -101 102 105 -107 -108 109 110 -112 114 115 118 119 -120 -121 -122 126 129 134 136 137 -138 139 142 -144 -146 147 -149 -150 0
x -3 -4 6 -7 -9 -10 -12 -13 14 15 18 19 23 25 26 -28 -29 -30 -35 -38 39 -41 45 47 -48 51 -53 55 -57 -59 -60 61 -62 63 -65 -66 69 71 76 79 -84 -86 -87 -89 90 -91 96 97 102 -103 104 -108 110 111 -112 -113 114 116 117 -118 -119 -120 122 124 -126 -128 130 -131 -136 -137 138 -139 -141 -142 143 -146 -147 -148 0
x -1 -7 -9 -10 -14 -17 19 -20 -22 23 25 29 34 -36 -37 38 -39 -43 -44 45 -46 51 53 -56 57 59 -62 63 -65 -66 -68 -69 -70 -71 -72 -73 74 -75 -77 78 79 82 88 -89 -91 92 93 -95 -99 101 -103 -105 107 108 110 -112 -114 115 -117 -120 122 127 130 -134 135 136 -140 -141 -146 -148 -149 0
x 1 -2 -5 6 -10 14 -15 -16 18 -20 -22 23 -24 -27 28 29 33 34 36 37 -38 41 42 43 49 51 -52 53 -58 59 -60 -63 64 -65 67 69 75 79 80 -81 82 86 -88 92 93 -98 101 103 105 -106 109 110 111 112 114 -117 118 -119 -121 -123 125 127 -128 -131 -132 134 135 136 137 138 141 142 -143 144 -145 -146 148 -149 -150 0
x 1 2 3 5 -8 -9 -11 -12 14 -15 16 -19 -20 -21 -22 -24 -26 -27 32 -33 35 40 -41 44 45 -47 49 50 51 52 55 -57 58 -59 -61 -63 64 67 69 -72 75 76 81 -85 86 88 90 -91 -92 96 -97 -102 -103 -106 107 108 112 116 -121 -123 -127 -129 130 138 139 140 -145 -146 147 -149 0
x 1 2 3 6 10 11 -12 18 20 -24 -26 -27 28 -29 -32 33 -35 36 39 -40 -41 45 -46 -47 -50 52 53 -57 -58 59 61 63 66 -67 69 70 -71 -72 -76 77 -78 -79 -83 -84 85 -87 88 -89 93 -95 97 98 -101 -102 103 104 -105 -106 108 109 -112 114 116 119 122 124 -127 -130 -132 133 -134 -137 -140 -141 -142 -143 -145 -146 0
x -1 -2 -3 4 -6 -8 -9 -10 -12 -13 14 -16 17 21 22 24 -25 27 28 30 -33 -36 37 -38 -39 41 -43 44 45 -46 -52 56 58 59 -60 66 67 -68 -69 73 -76 -77 -78 81 -82 -83 86 -90 -92 96 -98 101 -106 109 111 112 -116 117 121 -125 126 -128 -129 -130 136 -137 139 141 145 -149 0
x 1 2 3 -4 5 -9 -11 -12 -14 15 -17 -18 20 23 24 25 26 -27 -29 -31 -35 36 39 -40 -41 -42 -44 -45 46 -47 48 49 -54 55 58 59 -61 62 -63 -66 -68 -69 70 -72 -73 -76 -78 80 84 86 -88 -89 90 -93 96 97 -99 -101 102 -104 -105 106 -108 110 112 113 -116 -118 -121 122 124 125 130 131 134 135 -136 142 -143 144 -147 -148 -149 0
x -1 3 -4 5 -6 7 9 11 -14 22 23 24 25 26 27 -30 -31 32 -35 -36 -39 40 43 47 48 49 -51 52 -55 56 -58 -60 61 -62 70 74 -75 -76 77 -80 81 83 -84 85 86 87 -90 91 94 -96 99 100 101 -102 103 -104 -106 111 -112 -116 118 121 123 127 -129 131 -132 136 -140 -141 142 143 149 150 0
x 3 -7 9 10 11 12 -13 -14 -16 18 22 -23 26 -27 -28 29 -30 33 34 -36 -37 -38 40 -41 43 -44 -45 -46 -47 49 -50 -53 -54 -60 61 65 -68 -69 70 -72 74 76 -77 78 79 -80 82 83 -86 -89 -90 -92 -93 -97 98 99 -100 -101 102 -104 -105 106 -107 112 -115 -120 -121 124 126 128 130 -136 -137 138 139 145 -147 149 -150 0
x -3 4 6 -7 -8 9 -11 -12 13 -18 19 20 21 -23 25 -26 -27 29 31 32 33 37 42 43 48 -50 51 -52 53 54 57 -59 60 61 -62 -64 70 71 72 75 77 78 82 -87 90 93 -98 100 103 -104 105 -108 109 -111 112 -113 114 -116 -117 -118 119 -120 121 -123 -124 126 127 -129 -135 -143 144 147 -148 -149 0
x 1 -10 11 12 13 -14 -16 -18 22 -23 -24 -25 26 29 -30 31 -32 -34 35 37 -38 39 -44 -45 -46 -48 50 53 56 -59 61 64 -65 67 70 71 72 -73 -74 75 -76 77 78 -81 82 -88 89 -92 -94 -95 -99 104 -105 -107 108 -109 -110 112 -116 -119 120 -122 123 125 -129 -132 -133 -134 -135 -136 138 139 -140 141 -145 -146 147 -148 149 0
x 3 -4 -5 6 -9 12 -13 -18 -19 20 -21 -23 24 -25 -26 28 29 30 -31 34 35 -40 42 -46 -48 51 -53 -54 -55 57 -61 62 63 64 65 -66 -68 -69 -70 73 -74 -77 78 79 82 -84 86 87 -89 90 91 -93 -95 -96 97 100 -101 -102 103 108 111 114 -117 -118 119 -121 -124 -126 -128 129 -131 -133 136 -142 143 144 -145 148 -149 0
x -1 3 8 11 16 -17 -18 -19 20 21 -22 23 -24 25 -27 28 29 30 -31 33 38 -41 42 44 46 48 54 55 56 58 60 -63 66 -68 70 -71 -73 74 75 78 82 -83 -90 -91 92 93 94 95 96 97 -98 -99 -100 -105 106 -107 109 -112 117 -118 -119 120 121 -122 127 -130 131 -132 -133 -137 -139 -144 -150 0
x -1 -3 -4 5 -7 -8 11 -13 14 -15 -20 21 -22 -23 25 -28 29 -31 -32 -33 34 -37 40 42 -43 45 -46 -47 -50 -51 -52 -54 55 60 -61 62 -63 -64 65 -67 69 70 76 77 -78 79 -80 -81 83 86 89 -92 93 -95 -96 97 -101 102 103 109 -115 -116 -117 -120 121 -122 123 -124 127 -129 130 133 -134 -140 -142 -143 144 -150 0
x 1 -3 7 15 16 23 24 25 -26 -27 29 -30 -31 -32 -33 -34 35 37 -44 -48 -49 -50 -53 -54 -57 59 -62 64 -66 -68 70 72 80 81 83 86 -87 -88 89 90 91 -93 96 -98 101 102 104 107 -109 -111 114 115 116 118 120 121 -122 -123 -124 -126 127 -131 133 134 -135 141 -142 146 -148 -149 -150 0
x 1 2 -3 -5 -6 7 -8 9 -11 12 14 -16 -18 -20 22 23 26 -27 -28 -30 -31 -32 35 -37 -41 -42 -46 48 50 -51 54 55 -58 -59 -60 -62 63 64 -65 68 75 76 -80 -83 -85 -87 88 90 -91 94 -96 -98 -99 101 103 105 106 -107 -110 -114 -115 -116 117 119 -121 131 -134 -135 -137 -140 -141 143 144 -145 147 148 -149 0
x -5 -9 10 -11 -12 13 17 21 24 26 27 -28 30 -32 -33 -34 -35 -36 -37 41 44 -45 46 -47 -50 -51 52 53 -54 55 -56 -59 60 -64 65 -67 68 -72 73 75 76 77 -78 79 -83 -84 86 -87 -89 90 -94 -98 -100 -101 106 -109 -110 111 112 -114 115 116 -117 119 -122 -123 -124 -125 -127 128 129 131 132 133 -137 138 -142 -144 -146 147 148 0
x -1 -2 3 -6 7 -9 10 -12 13 16 18 -20 -23 -25 26 27 29 -30 31 -33 34 35 38 40 42 46 47 -48 -51 -52 -56 58 59 -62 63 -65 67 -68 69 -70 -73 -74 75 79 81 83 -85 89 91 93 -94 -95 -96 98 101 -103 -104 -107 -109 112 -113 114 119 121 122 124 126 129 -132 -133 143 -144 147 -148 149 0
x -6 7 -8 -9 -10 -15 16 -17 -18 20 24 26 -28 -29 30 31 36 -37 -39 -40 41 -45 -46 -49 50 51 -52 -57 65 -66 67 68 69 -70 -71 -72 -73 74 76 -77 78 -80 -84 88 -91 -93 96 -97 103 105 -108 -111 112 118 121 122 -124 -129 131 136 -139 140 141 -144 -145 -146 -147 0
x -1 -2 -4 5 -6 7 -8 -10 13 -14 -17 -19 21 -23 -24 -29 30 32 -33 34 -35 -36 -39 41 42 -43 45 -46 47 49 50 -51 52 56 57 -59 60 -61 -64 -66 67 -68 -69 71 72 -73 77 -78 80 83 84 86 89 90 91 93 -94 -95 96 -99 -102 -109 112 115 -122 123 -128 -129 130 131 132 134 -135 136 138 142 143 144 -145 146 150 0
x -1 -2 4 -6 7 13 15 -20 23 27 -28 29 30 -31 -32 -34 39 -40 -41 -43 -44 -46 48 -50 -52 -53 -54 57 59 -60 61 62 -63 64 -71 -72 -75 -76 -77 -79 -80 -81 82 83 -87 88 89 90 -92 97 98 99 -100 101 -103 -104 105 107 109 -110 111 -112 -114 -115 117 118 121 -124 -125 -126 127 -128 -134 -135 -136 -138 -139 -140 -142 -147 148 -149 150 0
x 1 -5 6 7 -8 -10 -14 15 16 -17 -19 20 21 -23 -24 26 -28 -31 -33 35 40 -42 43 -45 -49 -50 52 -53 -54 -55 57 -58 -59 -60 63 67 69 70 73 -74 75 -76 -77 -80 81 83 -89 -90 92 93 -94 -101 103 -104 -106 108 -109 -110 -113 -114 -115 117 119 -120 123 -125 -128 -131 132 134 135 -138 -139 -140 142 143 -146 150 0
x -1 -7 -8 -9 10 -11 12 -13 -14 -16 19 21 -22 -25 -27 28 -30 31 -34 35 38 39 -40 41 45 46 -47 -49 -50 -52 53 55 57 -58 59 -60 -61 63 65 69 -70 -74 75 77 -78 -79 -80 -82 -83 -85 86 87 88 -91 92 -93 -97 99 101 102 -103 104 105 107 -108 109 -111 112 -113 -114 117 118 -119 -120 123 -124 -125 126 129 -130 132 134 135 136 137 138 141 -145 146 -147 148 149 0
x 1 -4 -5 -7 -9 -11 12 -13 -15 -17 -23 26 -27 -29 -31 32 33 34 -35 36 37 39 40 42 -43 -46 50 -52 54 -55 56 57 58 60 -61 66 -69 70 -73 -76 -78 80 85 -87 -91 93 94 99 -105 106 107 -108 -111 112 -116 117 -122 -124 130 133 -135 137 -139 140 -146 150 0
x 1 2 7 8 9 11 -14 -15 -17 23 -25 -26 28 -34 35 -37 39 40 41 -42 -43 -45 46 -47 -48 49 -52 -53 54 56 -57 -59 62 -64 -65 67 68 69 71 -74 -75 77 -82 84 85 89 90 92 -93 96 -97 98 100 101 -102 104 -111 113 115 -116 120 122 -123 -124 -126 -127 128 129 -131 134 -138 141 142 -143 -148 -149 -150 0
x 2 4 5 7 9 -11 12 13 -15 -17 -18 19 20 22 -24 -25 -26 27 -28 32 34 -36 39 40 -41 -42 -43 -44 -45 -46 -47 48 -53 54 -55 -57 58 -61 -62 63 -66 67 71 -73 74 -75 76 -77 87 -88 -89 -90 -91 -92 93 94 -95 -96 -98 -100 -102 -103 104 -105 -109 -110 -112 113 114 116 117 -118 119 -124 -126 127 -128 -130 132 -138 -139 -140 141 143 145 -146 -147 148 -149 0
x -2 -4 5 6 8 -10 11 -12 13 -16 -17 18 -19 -22 -23 24 -26 27 28 31 33 35 -36 -37 39 40 -41 -46 48 -50 53 -59 60 61 -65 -66 67 -68 -71 74 75 79 -80 82 83 85 87 88 91 -92 -93 -95 96 99 -101 102 104 -111 -112 114 -121 -122 -126 -127 130 -132 133 134 136 143 -144 146 -147 0
x -2 -3 5 -7 8 9 -14 -18 -19 21 -22 23 -24 26 29 31 33 -34 -38 41 43 -44 -46 47 -49 50 -52 53 -55 58 60 61 64 -65 66 68 -72 -73 76 82 -83 -84 85 86 87 -88 -89 -90 91 93 -96 97 98 -101 -102 103 -104 105 -108 109 -110 111 114 -115 116 -118 119 -120 -123 -124 -126 129 132 -135 136 -138 -139 140 141 142 145 146 147 148 150 0
x 2 -3 -4 -5 -6 7 -8 -10 12 -13 -18 19 -20 21 -22 -25 28 29 -33 36 -39 45 46 -49 -50 -51 -52 55 56 57 -59 60 -61 -63 -64 68 -70 -72 -73 -74 -75 -76 -77 79 -80 82 83 87 89 90 91 92 94 -96 -97 98 -99 100 101 102 104 105 -108 -111 -113 -114 117 118 -119 120 122 -123 125 127 -129 130 132 133 -134 -138 141 142 143 -147 -150 0
x -3 -7 8 9 -10 -11 16 17 24 25 -26 27 -30 -31 -35 -38 -39 41 -42 -43 -46 49 -50 51 -52 55 56 57 -62 65 -66 -67 -68 -69 70 -72 -75 77 -80 -81 84 -87 -89 90 92 -93 94 -95 98 99 102 -104 -106 107 108 111 -112 -121 -122 -123 -125 127 130 135 -136 -137 138 139 144 -146 -147 148 0
x -1 -7 9 -11 14 16 17 -18 -20 -21 -22 -24 25 28 29 -30 34 35 36 37 38 40 -41 -42 -45 -49 -51 -52 54 -55 56 58 -59 62 67 -68 -76 77 78 81 85 86 87 -88 -92 -93 -94 -96 99 102 104 105 -110 -111 113 -114 -115 -116 -117 -118 -119 -120 -123 -124 -126 132 133 -134 -135 136 -137 -138 140 -141 143 147 148 150 0
x 1 3 -9 11 12 18 -22 -23 -24 -27 -28 29 30 38 39 -40 41 42 -43 46 -47 -48 49 50 51 -52 -53 54 55 -58 59 61 64 65 68 -69 -70 71 -72 74 -75 80 -83 -85 86 87 89 -91 -93 94 95 -100 101 -102 -105 106 108 -109 -110 112 -115 116 -121 123 -124 -127 -129 -133 135 -138 140 -142 -144 149 0
x -1 3 4 -6 -9 -11 15 -16 17 20 21 -22 -25 -30 31 32 33 -35 -36 37 39 -41 -42 -44 45 -47 -50 -51 52 -56 58 -59 61 -62 65 -66 68 69 70 -72 74 -75 78 -81 83 86 87 89 -92 -93 -94 95 96 -98 -100 101 102 -106 -109 -113 -115 118 119 -120 126 131 134 -137 -138 -143 -148 0
x 1 3 -4 5 -7 -10 13 -14 -23 24 26 -27 -29 -31 32 -33 35 -37 -45 46 48 -49 52 53 -54 56 60 63 -64 65 70 72 -73 74 75 76 -79 -81 -82 -84 86 87 88 89 91 -92 93 94 -98 100 102 -103 -104 105 -106 -107 -108 109 -110 -111 112 -114 115 -117 121 122 -126 132 138 -139 141 145 -146 147 149 -150 0
x 2 -3 5 -6 11 13 -15 -18 21 -22 24 26 30 31 -34 36 -38 39 -41 -42 43 46 -48 49 -51 58 62 63 64 66 -67 75 -77 -80 82 -83 -85 86 -89 92 97 100 -102 104 105 106 -109 -110 -114 -115 116 117 -118 -120 121 -124 -125 -127 129 -130 -131 132 -134 -136 -138 -139 140 -141 -142 143 144 -145 -146 -147 -148 150 0
x 1 -4 -5 9 -10 -12 13 17 -19 -23 -25 -26 27 28 -29 -30 -31 -34 -35 -39 40 41 42 43 45 -49 50 55 57 58 59 60 61 -62 -64 67 69 70 -72 73 75 78 -79 80 -83 86 -87 -88 89 90 -94 95 96 -101 102 -103 -104 -106 107 -108 112 114 117 120 -123 124 -125 -129 134 -135 -140 141 143 145 146 -147 -150 0
x -2 -5 7 -9 12 -16 18 -19 -20 -22 -23 24 25 -28 29 32 38 39 -40 -47 48 -49 -50 51 -52 -54 58 -60 -61 62 63 -66 -68 -69 73 -74 -75 76 -83 -86 -87 88 91 92 96 -101 102 104 -105 -107 -109 110 111 -116 117 120 -121 -122 -126 -128 131 -132 133 -134 135 137 138 143 146 147 -148 -149 0
x 4 -5 -6 7 8 -9 15 17 -19 -20 -22 -23 -26 -30 -32 -33 -36 37 39 -40 44 -45 -46 49 50 55 -56 62 -63 64 -66 68 -69 72 74 79 -82 87 -88 -90 -92 -93 94 -96 99 100 -101 -102 103 -104 -105 -108 -111 114 -118 -119 120 -121 -123 125 126 127 129 133 -135 141 142 143 -144 146 -147 148 -149 -150 0
x 1 -2 -4 -6 -7 10 11 -13 15 16 -17 18 20 -21 22 23 25 -26 -27 28 29 -34 -36 42 -46 48 50 -54 -56 -57 -58 59 -61 -65 66 -67 71 73 75 -76 -79 -80 -85 87 88 -91 92 93 94 95 -97 98 -99 100 101 103 104 -105 109 110 112 113 -117 -119 -120 -122 -125 126 129 130 -131 -133 -134 -135 -138 -139 -141 -142 -144 145 146 -147 149 0
x -3 -5 -8 9 -12 14 16 -18 19 21 22 23 24 -26 30 31 -32 -34 -35 36 38 41 -42 -46 -48 -49 50 60 -62 64 -66 -67 -68 69 -71 79 80 -84 86 89 91 94 -97 -98 100 -104 105 106 107 108 -110 111 112 -113 116 118 -121 -122 -123 125 -127 -128 131 136 -137 -140 141 -142 -143 -144 -147 -149 150 0
x 4 6 -7 11 12 -14 -15 16 19 20 21 27 -28 29 -32 -35 -36 -37 40 41 -43 -44 -47 -51 56 -58 59 -60 -61 67 -68 69 -70 71 -73 75 -77 -78 -80 -82 83 -84 -86 -88 -89 90 91 92 94 -95 -96 -97 98 -103 104 107 109 110 111 -113 -114 115 118 -120 122 -123 125 128 130 -134 135 -138 141 -142 144 -145 -150 0
x 2 -8 9 10 13 -15 16 18 -20 -21 -27 -29 -30 32 34 35 36 -39 -42 43 47 48 49 -50 -51 -52 -54 56 59 -61 -63 -64 66 -67 -69 -72 73 74 -76 79 -80 82 85 -86 89 90 -92 -94 95 98 99 -102 -104 -108 -109 -111 -112 113 -114 -115 -117 118 119 -121 122 -125 -128 130 -132 135 136 137 138 -140 141 -142 -143 -144 -146 -148 -149 -150 0
x -1 2 3 -5 -6 -7 9 -12 -13 -14 -15 17 -19 -20 -21 -23 24 -28 32 33 -34 -35 -39 40 -41 -42 43 -49 50 53 -58 59 -61 62 65 69 70 -71 72 -73 75 -76 78 81 -82 84 -86 -88 -89 90 91 -92 -94 95 -97 -101 103 -104 105 -106 -108 109 -114 -115 -118 -121 -122 123 124 -125 -130 131 -132 133 -135 -136 137 144 -145 146 147 150 0
x 1 3 -5 6 -9 13 -15 -16 17 18 19 -23 -24 25 27 28 32 33 -36 38 39 41 -42 -45 48 -51 54 55 -57 60 61 -62 63 70 71 72 78 -79 -81 82 -84 85 -87 -91 92 95 -97 -98 99 102 -103 105 -109 -111 -112 -114 115 -116 -119 120 123 -126 127 133 137 -138 -141 -143 -145 146 -147 -148 149 -150 0
x -1 6 8 -9 10 11 12 -13 14 16 20 -23 -24 -25 -27 -28 29 -31 33 -35 -40 -43 -46 49 56 -58 60 63 64 -65 -70 -71 -73 77 -78 -79 80 -81 -83 -84 86 -87 -90 91 93 96 99 105 107 -108 -111 114 118 119 -123 126 -130 132 -133 -137 -138 -139 140 146 0
x -1 -2 4 5 8 -9 -10 -11 13 -16 17 18 20 -23 24 -25 -28 -34 -36 -37 -40 41 -43 46 50 51 -52 -54 -55 -57 -58 62 -63 64 66 68 69 -71 -73 77 79 83 84 -86 87 -89 91 93 -95 -98 -99 101 102 -103 107 -108 -111 112 -114 117 -118 -119 120 -121 -122 -125 -126 -127 -129 132 138 142 143 144 147 -148 150 0
x 2 -5 -8 10 12 13 15 16 -22 23 27 28 -32 33 -35 -36 37 40 41 43 44 -45 46 47 -49 53 54 55 56 -58 -60 61 -62 63 64 -67 68 -73 74 77 79 -81 -83 -84 -85 86 -87 -88 90 92 -99 101 103 105 107 109 -111 -112 -113 -115 -117 118 120 121 122 -123 -125 129 -130 131 133 134 139 140 -141 142 143 -145 148 -150 0
x 2 5 -6 -8 9 -10 11 -13 15 17 -19 20 23 -24 -26 -31 -32 33 -36 -38 -39 40 41 42 -43 44 48 52 54 57 -62 63 64 -67 68 69 -70 -71 77 82 -83 -84 87 88 -90 -91 -98 102 103 104 -105 106 107 109 110 114 117 118 119 120 -122 -123 125 -126 -127 -128 -129 132 133 134 135 -136 -137 -138 140 -143 -144 145 146 147 149 0
x 1 4 8 -15 -16 18 -19 -20 -22 23 -25 30 35 39 45 -47 49 -52 -53 -57 60 61 68 69 -70 72 73 -75 77 -78 81 -82 -84 -87 -88 91 -92 -94 -95 -99 100 102 103 -104 -107 108 109 -110 -111 114 -115 117 -120 127 -128 -131 -132 135 -136 -140 -142 -144 145 146 -147 148 149 0
x 1 2 4 -6 -7 8 10 -12 13 14 -19 -23 -24 25 27 -29 -31 -34 -36 -37 40 41 -46 47 -48 50 51 52 61 63 -64 66 -67 68 69 71 -74 -77 80 83 85 86 -87 -89 -91 96 -98 -99 -103 108 -113 -114 117 -119 120 122 -123 -127 128 129 -131 132 138 141 142 143 148 149 -150 0
x 1 2 3 5 -9 11 16 17 18 -20 -23 -24 27 -28 -29 -30 -33 -39 -41 43 -45 47 -48 50 51 -52 -56 -58 -60 62 63 -64 -68 71 73 -75 76 -77 79 -82 -85 -86 89 92 94 96 100 -101 -102 103 -105 -106 -111 113 -114 -115 118 119 -120 121 122 -123 124 -126 -127 -130 -131 -132 133 135 -137 -139 142 -143 145 -150 0
x -1 3 -4 5 -6 -7 -8 11 -13 -16 -17 -18 24 -27 -28 29 -30 31 32 35 43 -44 46 -47 -48 49 -51 55 -56 -57 -62 -66 67 70 -71 -75 76 77 78 81 82 83 -88 89 -91 -92 -93 94 100 101 -103 -104 105 113 114 117 -123 124 125 -126 -127 -129 -130 134 135 142 146 149 0
x 3 -6 -7 8 -9 10 11 12 14 15 18 21 23 -31 33 -39 -40 41 -43 -44 46 -48 49 -50 -53 -54 55 61 62 -63 65 -67 69 -71 -72 76 77 78 -79 -82 -83 -86 87 -88 89 -90 -91 -92 -94 -95 96 -97 100 -101 105 -106 -107 -108 109 -110 112 117 -118 -120 -125 -126 128 -129 -130 131 -134 -135 -137 -138 142 143 146 149 0
x -1 3 5 -7 -12 13 14 15 18 -23 25 -26 28 -32 33 34 35 38 39 40 43 44 48 -49 52 55 -57 -58 -59 -60 63 -64 -66 -67 -75 -77 -79 80 -82 -83 -85 -88 90 -94 95 -96 98 -99 101 102 103 -106 -113 114 118 -120 121 122 123 124 125 128 131 -132 -136 139 -140 141 -143 144 145 -146 147 -150 0
x -3 -4 6 -8 -9 10 11 14 16 -17 -18 -20 -23 -25 27 -29 -31 -32 33 35 -37 38 -39 41 -42 43 -48 -50 -53 -54 -56 -57 -59 -60 -66 68 -71 72 73 74 -75 -78 -80 81 82 -84 86 91 -94 95 -96 97 -99 -100 103 104 -107 -109 110 -112 113 -116 118 119 126 127 130 -135 -136 -138 142 -144 147 -148 -149 0
x 1 -2 5 9 14 -17 18 -20 -21 22 23 -26 32 -34 36 -37 -38 -42 -43 -48 52 -53 54 -55 56 57 59 60 62 64 -67 69 -70 -71 74 -77 -80 82 -83 84 88 -89 91 92 -93 95 -98 -99 -103 -105 108 -109 111 -113 -115 117 -118 119 120 122 -125 -128 129 -130 -131 -132 -134 137 138 -139 -145 -146 -147 -148 -149 0
